Warning:  Output names have been modified to conform to LP format.
Default row names c1, c2 ... being created.
Tried aggregator 1 time.
LP Presolve eliminated 6 rows and 0 columns.
Aggregator did 14 substitutions.
Reduced LP has 28 rows, 22 columns, and 76 nonzeros.
Presolve time = 0.00 sec. (0.04 ticks)

Iteration log . . .
Iteration:     1   Scaled dual infeas =             1.000000
Iteration:     8   Dual objective     =             0.096000
